\ Model Cl_50_Ins_4.lp
\ LP format - for model browsing. Use MPS format to capture full model detail.
Maximize
 
Subject To
 obj1: y[0] = 0
 obj2: y[1] = 0
 obj1_Exp: - y[0] + 98 x[0] + 97 x[1] + 96 x[2] + 94 x[3] + 91 x[4]
   + 89 x[5] + 89 x[6] + 85 x[7] + 83 x[8] + 81 x[9] + 79 x[10] + 77 x[11]
   + 76 x[12] + 76 x[13] + 76 x[14] + 76 x[15] + 75 x[16] + 75 x[17]
   + 74 x[18] + 68 x[19] + 65 x[20] + 64 x[21] + 62 x[22] + 62 x[23]
   + 61 x[24] + 61 x[25] + 60 x[26] + 58 x[27] + 57 x[28] + 54 x[29]
   + 53 x[30] + 52 x[31] + 46 x[32] + 46 x[33] + 42 x[34] + 42 x[35]
   + 41 x[36] + 39 x[37] + 32 x[38] + 32 x[39] + 32 x[40] + 30 x[41]
   + 26 x[42] + 25 x[43] + 15 x[44] + 15 x[45] + 14 x[46] + 11 x[47]
   + x[48] + x[49] = 0
 obj2_Exp: - y[1] + 62 x[0] + 95 x[1] + 56 x[2] + 79 x[3] + 97 x[4]
   + 37 x[5] + 93 x[6] + 50 x[7] + 77 x[8] + 50 x[9] + 65 x[10] + 62 x[11]
   + 27 x[12] + 44 x[13] + 27 x[14] + 66 x[15] + 39 x[16] + 44 x[17]
   + 95 x[18] + 75 x[19] + 54 x[20] + 60 x[21] + 93 x[22] + 33 x[23]
   + 81 x[24] + 15 x[25] + 79 x[26] + 81 x[27] + 25 x[28] + 11 x[29]
   + 54 x[30] + 19 x[31] + 33 x[32] + 41 x[33] + 61 x[34] + 31 x[35]
   + 18 x[36] + 40 x[37] + 56 x[38] + 28 x[39] + 80 x[40] + 34 x[41]
   + 90 x[42] + 33 x[43] + 44 x[44] + 51 x[45] + 38 x[46] + 78 x[47]
   + 88 x[48] + 6 x[49] = 0
 Budget: 108 x[0] + 107 x[1] + 106 x[2] + 104 x[3] + 101 x[4] + 99 x[5]
   + 99 x[6] + 95 x[7] + 93 x[8] + 91 x[9] + 89 x[10] + 87 x[11] + 86 x[12]
   + 86 x[13] + 86 x[14] + 86 x[15] + 85 x[16] + 85 x[17] + 84 x[18]
   + 78 x[19] + 75 x[20] + 74 x[21] + 72 x[22] + 72 x[23] + 71 x[24]
   + 71 x[25] + 70 x[26] + 68 x[27] + 67 x[28] + 64 x[29] + 63 x[30]
   + 62 x[31] + 56 x[32] + 56 x[33] + 52 x[34] + 52 x[35] + 51 x[36]
   + 49 x[37] + 42 x[38] + 42 x[39] + 42 x[40] + 40 x[41] + 36 x[42]
   + 35 x[43] + 25 x[44] + 25 x[45] + 24 x[46] + 21 x[47] + 11 x[48]
   + 11 x[49] <= 1238
Bounds
Binaries
 x[0] x[1] x[2] x[3] x[4] x[5] x[6] x[7] x[8] x[9] x[10] x[11] x[12] x[13]
 x[14] x[15] x[16] x[17] x[18] x[19] x[20] x[21] x[22] x[23] x[24] x[25]
 x[26] x[27] x[28] x[29] x[30] x[31] x[32] x[33] x[34] x[35] x[36] x[37]
 x[38] x[39] x[40] x[41] x[42] x[43] x[44] x[45] x[46] x[47] x[48] x[49]
Generals
 y[0] y[1]
End
